NAME : ts225.126643.tour
COMMENT : Length = 126643
COMMENT : Found by LKH [Keld Helsgaun] Fri Apr 19 11:49:27 2019
TYPE : TOUR
DIMENSION : 225
TOUR_SECTION
1
2
3
4
5
6
7
8
9
131
132
133
134
135
33
34
35
36
37
140
139
138
137
136
10
11
12
13
14
15
16
17
18
19
141
20
21
22
23
24
25
146
147
148
149
150
50
49
171
172
173
174
175
75
196
197
198
74
73
72
71
70
191
192
193
194
195
95
96
97
98
99
199
200
100
221
222
223
224
225
125
124
123
122
121
120
119
118
117
116
220
219
218
217
216
94
93
92
91
90
89
88
211
212
213
214
215
115
114
113
112
111
110
109
108
107
210
106
105
104
103
102
101
205
204
203
202
201
77
76
180
179
178
177
176
51
155
154
52
53
54
55
56
57
181
182
183
184
185
81
80
79
78
209
208
207
206
82
83
84
85
86
87
190
189
188
187
186
64
65
66
67
68
69
170
169
168
167
166
45
46
47
48
142
143
144
145
44
43
42
41
40
39
38
161
162
163
164
165
63
62
61
60
59
58
160
159
158
157
156
32
31
30
29
28
27
153
152
151
26
130
129
128
127
126
-1
EOF
